Route #1: 6 51 44 32 9 17
Route #2: 39 31 55 25 50 18 24 49
Route #3: 23 56 41 42 64 61 21
Route #4: 26 7 35 8 46 34
Route #5: 4 52 27 45 29 30
Route #6: 48 47 5 37 36 60 20 15
Route #7: 57 13 54 19 59 14
Route #8: 53 11 38 10 58
Route #9: 12 40 3 16 63 33
Route #10: 2 62 28 22 43 1
Cost 850